BCC Xx 
1.0
6.36000000 0.00000000 0.00000000
0.00000000 6.36000000 0.00000000
0.00000000 0.00000000 6.36000000
16
Cartesian
0.00000000 0.00000000 0.00000000
1.59000000 1.59000000 1.59000000
0.00000000 0.00000000 3.18000000
1.59000000 1.59000000 4.77000000
0.00000000 3.18000000 0.00000000
1.59000000 4.77000000 1.59000000
0.00000000 3.18000000 3.18000000
1.59000000 4.77000000 4.77000000
3.18000000 0.00000000 0.00000000
4.77000000 1.59000000 1.59000000
3.18000000 0.00000000 3.18000000
4.77000000 1.59000000 4.77000000
3.18000000 3.18000000 0.00000000
4.77000000 4.77000000 1.59000000
3.18000000 3.18000000 3.18000000
4.77000000 4.77000000 4.77000000

0.00000000 0.00000000 0.00000000
0.00000000 0.00000000 0.00000000
0.00000000 0.00000000 0.00000000
0.00000000 0.00000000 0.00000000
0.00000000 0.00000000 0.00000000
0.00000000 0.00000000 0.00000000
-0.0323605  0.00161802  6.4721e-05
0.00000000 0.00000000 0.00000000
0.00000000 0.00000000 0.00000000
0.00000000 0.00000000 0.00000000
0.00000000 0.00000000 0.00000000
0.00000000 0.00000000 0.00000000
0.00000000 0.00000000 0.00000000
0.00000000 0.00000000 0.00000000
0.00000000 0.00000000 0.00000000
0.00000000 0.00000000 0.00000000
